RT is False
Default write of storage_offers_DA.csv just to have a file (but constraint should be inactive)
Reading model...
...model read.
creating competitive generators file...
...competitive generators recorded.
Loading data...
.. day-ahead data read.
Compiling instance...
...instance created.
Creating Offer Mitigation (model will solve as dispatch if TRUE)...
NOTE: storage offers will not be mitigated
...storage offer mitigation file created
Converting model to MPEC...
...converted
NOTE: initial MIP solve with only storage competitive to get feasible solution
Solving...

Welcome to IBM(R) ILOG(R) CPLEX(R) Interactive Optimizer 12.9.0.0
  with Simplex, Mixed Integer & Barrier Optimizers
5725-A06 5725-A29 5724-Y48 5724-Y49 5724-Y54 5724-Y55 5655-Y21
Copyright IBM Corp. 1988, 2019.  All Rights Reserved.

Type 'help' for a list of available commands.
Type 'help' followed by a command name for more
information on commands.

CPLEX> Logfile 'cplex.log' closed.
Logfile 'C:\Users\Luke\Desktop\test919\logs\tmppz4hml94.cplex.log' open.
CPLEX> New value for parallel optimization mode: -1
CPLEX> New value for mixed integer optimality gap tolerance: 0.01
CPLEX> New value for integrality tolerance: 1e-09
CPLEX> New value for feasibility tolerance: 0.01
CPLEX> New value for deterministic time limit in ticks: 75000
CPLEX> Problem 'C:\Users\Luke\Desktop\test919\logs\tmpfle524ve.pyomo.lp' read.
Read time = 0.19 sec. (14.73 ticks)
CPLEX> Problem name         : C:\Users\Luke\Desktop\test919\logs\tmpfle524ve.pyomo.lp
Objective sense      : Maximize
Variables            :   53805  [Nneg: 1,  Box: 22000,  Free: 4464,
                                 Binary: 27340]
Objective nonzeros   :    9105
Linear constraints   :  123205  [Less: 41346,  Greater: 59096,  Equal: 22763]
  Nonzeros           :  291829
  RHS nonzeros       :   67567

Variables            : Min LB: -5000.000        Max UB: 1000000.       
Objective nonzeros   : Min   : 0.1000000        Max   : 2500.000       
Linear constraints   :
  Nonzeros           : Min   : 0.1000000        Max   : 1000000.       
  RHS nonzeros       : Min   : 0.1000000        Max   : 1000000.       
CPLEX> CPXPARAM_Parallel                                -1
CPXPARAM_Simplex_Tolerances_Feasibility          0.01
CPXPARAM_DetTimeLimit                            75000
CPXPARAM_MIP_Tolerances_MIPGap                   0.01
CPXPARAM_MIP_Tolerances_Integrality              1.0000000000000001e-09
Tried aggregator 4 times.
MIP Presolve eliminated 88307 rows and 18706 columns.
MIP Presolve added 3455 rows and 0 columns.
MIP Presolve modified 24953 coefficients.
Aggregator did 12985 substitutions.
Reduced MIP has 25368 rows, 21633 columns, and 72122 nonzeros.
Reduced MIP has 8555 binaries, 0 generals, 0 SOSs, and 0 indicators.
Presolve time = 0.25 sec. (194.16 ticks)
Probing fixed 403 vars, tightened 2930 bounds.
Probing time = 1.53 sec. (920.89 ticks)
Tried aggregator 2 times.
MIP Presolve eliminated 909 rows and 807 columns.
MIP Presolve modified 2289 coefficients.
Aggregator did 39 substitutions.
Reduced MIP has 24420 rows, 20787 columns, and 69375 nonzeros.
Reduced MIP has 8152 binaries, 0 generals, 0 SOSs, and 0 indicators.
Presolve time = 0.11 sec. (74.53 ticks)
Probing time = 0.05 sec. (16.15 ticks)
Clique table members: 6383.
MIP emphasis: balance optimality and feasibility.
MIP search method: dynamic search.
Parallel mode: opportunistic, using up to 24 threads.
Root relaxation solution time = 0.48 sec. (330.80 ticks)

        Nodes                                         Cuts/
   Node  Left     Objective  IInf  Best Integer    Best Bound    ItCnt     Gap

      0     0     4033.7354  1830                   4033.7354     7169         
      0     0     4033.7354   632                   Cuts: 717     7540         
      0     0     4033.7354   489                   Cuts: 448     7772         
      0     0     4033.7354   427                   Cuts: 190     7869         
      0     0     4033.7354   395                    Cuts: 84     7910         
      0     0     4033.7354   377                    Cuts: 59     7938         
      0     0     4033.7354   364                    Cuts: 45     7954         
      0     0     4033.7354   354                    Cuts: 38     7966         
      0     0     4033.7354   348                    Cuts: 31     7973         
      0     0     4033.7354   346                    Cuts: 25     7975         
      0     8    infeasible                         4012.9388     9440         
Elapsed time = 10.38 sec. (7094.53 ticks, tree = 0.02 MB, solutions = 0)
    417    77     3566.4125   302                   4006.9741    10714         
    824   119     2332.3737   287                   4006.9741    10861         
   1471   620    -1698.2776   251                   4006.9741    12729         
   2555  1837     3988.1729   247                   4006.9741    17319         
   3486  2362    -1698.2776   248                   4006.9741    18357         
   4179  2945     3682.8912   224                   4006.9741    18750         
   4755  4118     3988.1729   208                   4006.9741    20548         
   5453  4508     2718.4156   101                   4006.9741    21812         
   6425  4787     3689.9875   205                   4006.9741    23656         
*  7813+ 4678                         2751.3013     4006.9741            45.64%
Elapsed time = 18.53 sec. (10030.08 ticks, tree = 48.73 MB, solutions = 1)
   8554  7404   -55731.7899    26     2751.3013     4006.9741    29275   45.64%
   9815  4826     3977.5670    23     2751.3013     4006.9741    36526   45.64%
* 10163  5289      integral     0     3982.5378     4006.9741    44771    0.61%
  10622  5206     3988.1714    24     3982.5378     4006.9741    43496    0.61%
  10773  5255        cutoff           3982.5378     4006.9741    44712    0.61%

Clique cuts applied:  16
Cover cuts applied:  1
Implied bound cuts applied:  26
Flow cuts applied:  507
Mixed integer rounding cuts applied:  27
Gomory fractional cuts applied:  29

Root node processing (before b&c):
  Real time             =   10.00 sec. (7086.79 ticks)
Parallel b&c, 24 threads:
  Real time             =   12.91 sec. (7135.76 ticks)
  Sync time (average)   =    0.28 sec.
  Wait time (average)   =    0.00 sec.
                          ------------
Total (root+branch&cut) =   22.91 sec. (14222.55 ticks)

Solution pool: 6 solutions saved.

MIP - Integer optimal, tolerance (0.01/1e-06):  Objective =  3.9825377671e+03
Current MIP best bound =  4.0069740558e+03 (gap = 24.4363, 0.61%)
Solution time =   22.92 sec.  Iterations = 53106  Nodes = 10774 (1695)
Deterministic time = 14222.70 ticks  (620.48 ticks/sec)

CPLEX> Incumbent solution written to file 'C:\Users\Luke\Desktop\test919\logs\tmpg0376u25.cplex.sol'.
CPLEX> NOTE: no warmstart specified for MIP iteration, default behavior is true
NOTE: resolving with all competitive generators using storage-only solution to warmstart
Solving...

Welcome to IBM(R) ILOG(R) CPLEX(R) Interactive Optimizer 12.9.0.0
  with Simplex, Mixed Integer & Barrier Optimizers
5725-A06 5725-A29 5724-Y48 5724-Y49 5724-Y54 5724-Y55 5655-Y21
Copyright IBM Corp. 1988, 2019.  All Rights Reserved.

Type 'help' for a list of available commands.
Type 'help' followed by a command name for more
information on commands.

CPLEX> Logfile 'cplex.log' closed.
Logfile 'C:\Users\Luke\Desktop\test919\logs\tmp7y87ggc6.cplex.log' open.
CPLEX> New value for parallel optimization mode: -1
CPLEX> New value for mixed integer optimality gap tolerance: 0.01
CPLEX> New value for integrality tolerance: 1e-09
CPLEX> New value for feasibility tolerance: 0.01
CPLEX> New value for deterministic time limit in ticks: 75000
CPLEX> Problem 'C:\Users\Luke\Desktop\test919\logs\tmpw1lstrdc.pyomo.lp' read.
Read time = 0.20 sec. (14.75 ticks)
CPLEX> MIP start file 'C:\Users\Luke\Desktop\test919\logs\tmpj3isq3jy.cplex.mst' read.
CPLEX> Problem name         : C:\Users\Luke\Desktop\test919\logs\tmpw1lstrdc.pyomo.lp
Objective sense      : Maximize
Variables            :   54525  [Nneg: 1,  Box: 22720,  Free: 4464,
                                 Binary: 27340]
Objective nonzeros   :    9825
Linear constraints   :  123205  [Less: 41346,  Greater: 59096,  Equal: 22763]
  Nonzeros           :  291829
  RHS nonzeros       :   67567

Variables            : Min LB: -5000.000        Max UB: 1000000.       
Objective nonzeros   : Min   : 0.1000000        Max   : 2500.000       
Linear constraints   :
  Nonzeros           : Min   : 0.1000000        Max   : 1000000.       
  RHS nonzeros       : Min   : 0.1000000        Max   : 1000000.       
CPLEX> CPXPARAM_Parallel                                -1
CPXPARAM_Simplex_Tolerances_Feasibility          0.01
CPXPARAM_DetTimeLimit                            75000
CPXPARAM_MIP_Tolerances_MIPGap                   0.01
CPXPARAM_MIP_Tolerances_Integrality              1.0000000000000001e-09
Warning:  No solution found from 1 MIP starts.
Retaining values of one MIP start for possible repair.
Tried aggregator 4 times.
MIP Presolve eliminated 88307 rows and 19426 columns.
MIP Presolve added 3455 rows and 0 columns.
MIP Presolve modified 24953 coefficients.
Aggregator did 12985 substitutions.
Reduced MIP has 25368 rows, 21633 columns, and 72122 nonzeros.
Reduced MIP has 8555 binaries, 0 generals, 0 SOSs, and 0 indicators.
Presolve time = 0.25 sec. (194.56 ticks)
Probing fixed 403 vars, tightened 2930 bounds.
Probing time = 1.56 sec. (920.89 ticks)
Tried aggregator 2 times.
MIP Presolve eliminated 909 rows and 807 columns.
MIP Presolve modified 2289 coefficients.
Aggregator did 39 substitutions.
Reduced MIP has 24420 rows, 20787 columns, and 69375 nonzeros.
Reduced MIP has 8152 binaries, 0 generals, 0 SOSs, and 0 indicators.
Presolve time = 0.09 sec. (74.53 ticks)
Probing time = 0.05 sec. (16.15 ticks)
Clique table members: 6383.
MIP emphasis: balance optimality and feasibility.
MIP search method: dynamic search.
Parallel mode: opportunistic, using up to 24 threads.
Root relaxation solution time = 0.45 sec. (330.80 ticks)

        Nodes                                         Cuts/
   Node  Left     Objective  IInf  Best Integer    Best Bound    ItCnt     Gap

      0     0     4033.7354  1830                   4033.7354     7169         
      0     0     4033.7354   632                   Cuts: 717     7540         
      0     0     4033.7354   489                   Cuts: 448     7772         
      0     0     4033.7354   427                   Cuts: 190     7869         
      0     0     4033.7354   395                    Cuts: 84     7910         
      0     0     4033.7354   377                    Cuts: 59     7938         
      0     0     4033.7354   364                    Cuts: 45     7954         
      0     0     4033.7354   354                    Cuts: 38     7966         
      0     0     4033.7354   348                    Cuts: 31     7973         
      0     0     4033.7354   346                    Cuts: 25     7975         
Repair heuristic found nothing.
      0    10    infeasible                         4012.9388     8242         
Elapsed time = 10.69 sec. (7276.07 ticks, tree = 0.02 MB, solutions = 0)
    382    50     2696.6173   300                   4006.9741    10662         
    681   260     3391.8219   305                   4006.9741    11746         
   1003   657    infeasible                         4006.9741    16869         
   1597   786      360.0525   247                   4006.9741    18890         
   2438  1354   -21583.5948   258                   4006.9741    21999         
   3118  2087  -284913.5282   289                   4006.9741    24264         
   3658  3018     3981.2189   230                   4006.9741    26678         
   4236  3207     3384.8679   239                   4006.9741    26873         
   5055  3618     3981.2189   204                   4006.9741    27654         
*  6529+ 6075                       -34721.4958     4006.9741           111.54%
Elapsed time = 18.08 sec. (9776.75 ticks, tree = 88.87 MB, solutions = 1)
   8043  6362     3988.1729   239   -34721.4958     4006.9741    29211  111.54%
   8063  7328        cutoff         -34721.4958     4006.9741    38302  111.54%
   9618   953     -831.1591    27   -34721.4958     4006.9741    42232  111.54%
  10892   971     4007.0211    22     2802.6604     4006.9741    47045   42.97%
* 11581  1071      integral     0     4019.9261     4006.9741    47683   -0.32%
* 11664   949      integral     0     4020.0202     4006.9741    46854   -0.32%
  12087  1430     4017.7806    44     4020.0202     4006.9741    48864   -0.32%
  12156  1323        cutoff           4020.0202     4006.9741    48498   -0.32%

Clique cuts applied:  21
Cover cuts applied:  29
Implied bound cuts applied:  7
Flow cuts applied:  251
Mixed integer rounding cuts applied:  16
Gomory fractional cuts applied:  62

Root node processing (before b&c):
  Real time             =   10.37 sec. (7269.51 ticks)
Parallel b&c, 24 threads:
  Real time             =   23.09 sec. (12596.04 ticks)
  Sync time (average)   =    0.62 sec.
  Wait time (average)   =    0.07 sec.
                          ------------
Total (root+branch&cut) =   33.47 sec. (19865.55 ticks)

Solution pool: 5 solutions saved.

MIP - Integer optimal solution:  Objective =  4.0200202380e+03
Solution time =   33.47 sec.  Iterations = 51305  Nodes = 12157
Deterministic time = 19865.71 ticks  (593.57 ticks/sec)

CPLEX> Incumbent solution written to file 'C:\Users\Luke\Desktop\test919\logs\tmpz42bghtd.cplex.sol'.
CPLEX> Exporting results... 
